1783.59
0 4 12 3 9 10 11 36 47 7 17 5 6 13 0
0 29 35 20 19 46 16 91 87 22 23 25 21 26 28 18 0
0 30 32 33 34 39 41 14 44 38 43 42 37 8 0
0 64 49 48 45 57 56 55 54 50 51 52 60 89 40 53 0
0 62 63 66 65 68 67 61 59 58 0
0 73 72 75 74 84 83 82 70 71 81 78 79 77 80 76 0
0 90 88 2 15 86 85 93 92 95 94 0
0 97 100 98 99 96 31 69 1 24 27 0
